c Standarized MaxSat Instance
c{
c "sha1sum": "f7329c42d0f2b3a8bb566740514ab036bfd50338",
c "nvars": 60,
c "ncls": 693,
c "total_lits": 1326,
c "nhards": 633,
c "nhard_nlits": 1266,
c "nhard_len_stats":
c    { "min": 2,
c      "max": 2,
c      "ave": 2.0000,
c      "stddev": 0.0000 },
c "nsofts": 60,
c "nsoft_nlits": 60,
c "nsoft_len_stats":
c    { "min": 1,
c      "max": 1,
c      "ave": 1.0000,
c      "stddev": 0.0000 },
c "nsoft_wts": 1,
c "soft_wt_stats":
c    { "min": 1,
c      "max": 1,
c      "ave": 1.0000,
c      "stddev": 0.0000 }
c}
c------------------------------------------------------------
c optimum value = 38745
1 1 0
1 2 0
1 3 0
1 4 0
1 5 0
1 6 0
1 7 0
1 8 0
1 9 0
1 10 0
1 11 0
1 12 0
1 13 0
1 14 0
1 15 0
1 16 0
1 17 0
1 18 0
1 19 0
1 20 0
1 21 0
1 22 0
1 23 0
1 24 0
1 25 0
1 26 0
1 27 0
1 28 0
1 29 0
1 30 0
1 31 0
1 32 0
1 33 0
1 34 0
1 35 0
1 36 0
1 37 0
1 38 0
1 39 0
1 40 0
1 41 0
1 42 0
1 43 0
1 44 0
1 45 0
1 46 0
1 47 0
1 48 0
1 49 0
1 50 0
1 51 0
1 52 0
1 53 0
1 54 0
1 55 0
1 56 0
1 57 0
1 58 0
1 59 0
1 60 0
h -1 -2 0
h -1 -3 0
h -1 -4 0
h -1 -5 0
h -1 -6 0
h -2 -3 0
h -2 -4 0
h -2 -5 0
h -2 -6 0
h -3 -4 0
h -3 -5 0
h -3 -6 0
h -4 -5 0
h -4 -6 0
h -5 -6 0
h -7 -8 0
h -7 -9 0
h -7 -10 0
h -7 -11 0
h -7 -12 0
h -8 -9 0
h -8 -10 0
h -8 -11 0
h -8 -12 0
h -9 -10 0
h -9 -11 0
h -9 -12 0
h -10 -11 0
h -10 -12 0
h -11 -12 0
h -13 -14 0
h -13 -15 0
h -13 -16 0
h -13 -17 0
h -13 -18 0
h -14 -15 0
h -14 -16 0
h -14 -17 0
h -14 -18 0
h -15 -16 0
h -15 -17 0
h -15 -18 0
h -16 -17 0
h -16 -18 0
h -17 -18 0
h -19 -20 0
h -19 -21 0
h -19 -22 0
h -19 -23 0
h -19 -24 0
h -20 -21 0
h -20 -22 0
h -20 -23 0
h -20 -24 0
h -21 -22 0
h -21 -23 0
h -21 -24 0
h -22 -23 0
h -22 -24 0
h -23 -24 0
h -25 -26 0
h -25 -27 0
h -25 -28 0
h -25 -29 0
h -25 -30 0
h -26 -27 0
h -26 -28 0
h -26 -29 0
h -26 -30 0
h -27 -28 0
h -27 -29 0
h -27 -30 0
h -28 -29 0
h -28 -30 0
h -29 -30 0
h -31 -32 0
h -31 -33 0
h -31 -34 0
h -31 -35 0
h -31 -36 0
h -32 -33 0
h -32 -34 0
h -32 -35 0
h -32 -36 0
h -33 -34 0
h -33 -35 0
h -33 -36 0
h -34 -35 0
h -34 -36 0
h -35 -36 0
h -37 -38 0
h -37 -39 0
h -37 -40 0
h -37 -41 0
h -37 -42 0
h -38 -39 0
h -38 -40 0
h -38 -41 0
h -38 -42 0
h -39 -40 0
h -39 -41 0
h -39 -42 0
h -40 -41 0
h -40 -42 0
h -41 -42 0
h -43 -44 0
h -43 -45 0
h -43 -46 0
h -43 -47 0
h -43 -48 0
h -44 -45 0
h -44 -46 0
h -44 -47 0
h -44 -48 0
h -45 -46 0
h -45 -47 0
h -45 -48 0
h -46 -47 0
h -46 -48 0
h -47 -48 0
h -49 -50 0
h -49 -51 0
h -49 -52 0
h -49 -53 0
h -49 -54 0
h -50 -51 0
h -50 -52 0
h -50 -53 0
h -50 -54 0
h -51 -52 0
h -51 -53 0
h -51 -54 0
h -52 -53 0
h -52 -54 0
h -53 -54 0
h -55 -56 0
h -55 -57 0
h -55 -58 0
h -55 -59 0
h -55 -60 0
h -56 -57 0
h -56 -58 0
h -56 -59 0
h -56 -60 0
h -57 -58 0
h -57 -59 0
h -57 -60 0
h -58 -59 0
h -58 -60 0
h -59 -60 0
h -32 -58 0
h -34 -57 0
h -36 -55 0
h -34 -56 0
h -32 -60 0
h -36 -57 0
h -33 -57 0
h -32 -57 0
h -33 -58 0
h -4 -18 0
h -5 -18 0
h -6 -18 0
h -6 -16 0
h -4 -14 0
h -6 -17 0
h -5 -17 0
h -2 -14 0
h -3 -15 0
h -18 -42 0
h -16 -40 0
h -18 -38 0
h -17 -39 0
h -17 -41 0
h -16 -39 0
h -15 -38 0
h -14 -41 0
h -18 -39 0
h -22 -46 0
h -24 -46 0
h -19 -47 0
h -24 -43 0
h -23 -47 0
h -19 -48 0
h -22 -45 0
h -20 -46 0
h -21 -45 0
h -30 -54 0
h -30 -52 0
h -25 -54 0
h -26 -53 0
h -26 -52 0
h -26 -49 0
h -28 -52 0
h -28 -51 0
h -30 -49 0
h -10 -52 0
h -11 -51 0
h -9 -50 0
h -12 -52 0
h -8 -52 0
h -8 -54 0
h -10 -54 0
h -12 -50 0
h -7 -50 0
h -2 -16 0
h -4 -17 0
h -2 -15 0
h -3 -13 0
h -26 -58 0
h -26 -59 0
h -29 -58 0
h -28 -56 0
h -30 -57 0
h -30 -58 0
h -25 -57 0
h -29 -57 0
h -28 -58 0
h -23 -32 0
h -24 -33 0
h -19 -34 0
h -19 -33 0
h -23 -36 0
h -22 -31 0
h -23 -31 0
h -19 -36 0
h -24 -35 0
h -33 -54 0
h -32 -50 0
h -34 -52 0
h -36 -51 0
h -32 -51 0
h -34 -49 0
h -35 -51 0
h -32 -53 0
h -31 -54 0
h -29 -48 0
h -26 -44 0
h -25 -46 0
h -30 -46 0
h -30 -45 0
h -28 -44 0
h -29 -45 0
h -27 -48 0
h -26 -48 0
h -2 -60 0
h -6 -55 0
h -5 -60 0
h -4 -59 0
h -1 -55 0
h -4 -57 0
h -1 -58 0
h -4 -60 0
h -5 -56 0
h -16 -24 0
h -15 -21 0
h -15 -24 0
h -17 -19 0
h -16 -20 0
h -17 -21 0
h -17 -23 0
h -14 -22 0
h -14 -23 0
h -2 -8 0
h -5 -11 0
h -4 -8 0
h -1 -9 0
h -4 -11 0
h -3 -9 0
h -2 -7 0
h -3 -10 0
h -4 -9 0
h -6 -13 0
h -3 -18 0
h -5 -16 0
h -1 -17 0
h -8 -38 0
h -9 -39 0
h -11 -39 0
h -9 -38 0
h -12 -40 0
h -8 -40 0
h -11 -37 0
h -8 -42 0
h -11 -38 0
h -36 -58 0
h -33 -59 0
h -36 -60 0
h -34 -59 0
h -15 -35 0
h -16 -34 0
h -13 -34 0
h -16 -33 0
h -18 -36 0
h -17 -33 0
h -15 -33 0
h -13 -36 0
h -13 -32 0
h -16 -55 0
h -16 -56 0
h -18 -60 0
h -14 -59 0
h -15 -57 0
h -16 -57 0
h -13 -55 0
h -17 -57 0
h -17 -56 0
h -15 -22 0
h -13 -22 0
h -16 -22 0
h -13 -19 0
h -18 -21 0
h -14 -24 0
h -13 -23 0
h -18 -20 0
h -31 -51 0
h -32 -54 0
h -35 -49 0
h -31 -52 0
h -35 -53 0
h -35 -52 0
h -23 -41 0
h -23 -39 0
h -22 -38 0
h -21 -42 0
h -21 -40 0
h -24 -38 0
h -22 -41 0
h -23 -38 0
h -19 -39 0
h -33 -40 0
h -35 -37 0
h -34 -42 0
h -31 -39 0
h -31 -40 0
h -35 -41 0
h -35 -42 0
h -34 -41 0
h -32 -40 0
h -12 -45 0
h -7 -47 0
h -11 -43 0
h -12 -47 0
h -8 -47 0
h -8 -45 0
h -11 -47 0
h -7 -48 0
h -9 -43 0
h -11 -57 0
h -7 -55 0
h -7 -56 0
h -7 -58 0
h -8 -55 0
h -11 -59 0
h -8 -59 0
h -11 -56 0
h -10 -58 0
h -46 -60 0
h -48 -55 0
h -44 -60 0
h -48 -57 0
h -46 -57 0
h -48 -58 0
h -43 -59 0
h -44 -57 0
h -46 -56 0
h -27 -45 0
h -28 -45 0
h -28 -43 0
h -29 -44 0
h -29 -46 0
h -27 -43 0
h -25 -47 0
h -30 -44 0
h -28 -46 0
h -5 -33 0
h -3 -34 0
h -6 -36 0
h -3 -36 0
h -3 -35 0
h -5 -36 0
h -2 -36 0
h -2 -35 0
h -4 -31 0
h -45 -54 0
h -45 -50 0
h -45 -53 0
h -48 -50 0
h -46 -51 0
h -44 -49 0
h -46 -53 0
h -43 -51 0
h -45 -52 0
h -16 -58 0
h -18 -58 0
h -15 -59 0
h -17 -60 0
h -14 -56 0
h -13 -57 0
h -14 -27 0
h -16 -27 0
h -13 -25 0
h -16 -30 0
h -18 -25 0
h -13 -27 0
h -15 -27 0
h -14 -25 0
h -14 -26 0
h -3 -41 0
h -5 -40 0
h -4 -37 0
h -4 -39 0
h -4 -42 0
h -6 -39 0
h -3 -37 0
h -4 -40 0
h -5 -39 0
h -52 -60 0
h -49 -59 0
h -49 -55 0
h -51 -58 0
h -53 -60 0
h -54 -56 0
h -52 -59 0
h -50 -58 0
h -51 -57 0
h -33 -37 0
h -36 -38 0
h -36 -37 0
h -33 -41 0
h -32 -37 0
h -36 -40 0
h -34 -38 0
h -2 -26 0
h -3 -28 0
h -6 -27 0
h -1 -28 0
h -5 -28 0
h -6 -29 0
h -2 -30 0
h -2 -28 0
h -6 -26 0
h -47 -59 0
h -43 -56 0
h -43 -57 0
h -44 -55 0
h -48 -59 0
h -43 -58 0
h -45 -57 0
h -10 -44 0
h -7 -45 0
h -9 -48 0
h -10 -43 0
h -11 -44 0
h -10 -45 0
h -12 -46 0
h -7 -46 0
h -24 -31 0
h -22 -36 0
h -21 -36 0
h -20 -36 0
h -42 -45 0
h -38 -44 0
h -41 -46 0
h -39 -44 0
h -37 -45 0
h -37 -44 0
h -39 -43 0
h -40 -45 0
h -42 -43 0
h -5 -38 0
h -2 -38 0
h -6 -37 0
h -1 -37 0
h -5 -42 0
h -25 -45 0
h -30 -48 0
h -29 -43 0
h -39 -57 0
h -37 -55 0
h -40 -55 0
h -41 -57 0
h -42 -60 0
h -37 -58 0
h -41 -55 0
h -37 -59 0
h -37 -60 0
h -33 -42 0
h -31 -38 0
h -32 -38 0
h -32 -42 0
h -3 -60 0
h -6 -58 0
h -2 -56 0
h -1 -59 0
h -6 -57 0
h -2 -58 0
h -5 -59 0
h -4 -27 0
h -4 -28 0
h -3 -25 0
h -5 -30 0
h -2 -27 0
h -10 -48 0
h -10 -46 0
h -9 -47 0
h -8 -44 0
h -11 -48 0
h -43 -52 0
h -48 -49 0
h -47 -51 0
h -43 -50 0
h -1 -33 0
h -2 -33 0
h -1 -34 0
h -5 -35 0
h -5 -31 0
h -17 -51 0
h -14 -54 0
h -13 -50 0
h -18 -52 0
h -13 -49 0
h -15 -54 0
h -13 -54 0
h -18 -51 0
h -17 -53 0
h -12 -15 0
h -11 -15 0
h -11 -18 0
h -12 -18 0
h -8 -15 0
h -11 -17 0
h -9 -13 0
h -8 -16 0
h -8 -17 0
h -4 -16 0
h -6 -14 0
h -3 -16 0
h -2 -18 0
h -31 -49 0
h -34 -51 0
h -31 -50 0
h -36 -50 0
h -13 -38 0
h -14 -42 0
h -18 -40 0
h -16 -41 0
h -14 -38 0
h -15 -40 0
h -13 -37 0
h -2 -44 0
h -2 -48 0
h -5 -47 0
h -4 -46 0
h -1 -43 0
h -3 -46 0
h -5 -44 0
h -4 -45 0
h -2 -47 0
h -17 -58 0
h -15 -55 0
h -14 -58 0
h -14 -55 0
h -14 -57 0
h -13 -58 0
h -9 -53 0
h -8 -50 0
h -9 -49 0
h -11 -49 0
h -11 -52 0
h -8 -53 0
h -7 -52 0
h -12 -49 0
h -1 -46 0
h -1 -48 0
h -1 -44 0
h -3 -43 0
h -3 -48 0
h -1 -45 0
h -5 -45 0
h -10 -37 0
h -12 -41 0
h -10 -39 0
h -9 -40 0
h -8 -37 0
h -2 -52 0
h -4 -49 0
h -3 -52 0
h -1 -50 0
h -2 -50 0
h -6 -51 0
h -5 -51 0
h -5 -53 0
h -6 -49 0
h -20 -32 0
h -23 -34 0
h -19 -35 0
h -21 -33 0
h -20 -34 0
h -21 -34 0
h -19 -57 0
h -21 -58 0
h -20 -60 0
h -19 -60 0
h -24 -59 0
h -21 -60 0
h -20 -55 0
h -20 -59 0
h -23 -55 0
h -39 -49 0
h -39 -52 0
h -42 -54 0
h -38 -53 0
h -37 -51 0
h -40 -51 0
h -41 -49 0
h -42 -50 0
h -37 -50 0
h -49 -60 0
h -54 -59 0
h -54 -57 0
h -50 -56 0
h -51 -55 0
h -53 -58 0
h -51 -56 0
h -29 -33 0
h -26 -33 0
h -27 -34 0
h -26 -36 0
h -26 -35 0
h -27 -31 0
h -28 -32 0
h -25 -31 0
h -29 -31 0
